
  22   10
  10   10   10   10   10   10   10   10   10   10

   0   0   0   0   0   0   0   0   0   0   0   3 2 3 4 
   8  10   0   0   0   0   0   0   0   0   0   2 7 5 
   5  10   0   0   0   0   0   0   0   0   0   2 7 5 
   6   0   0   0   0   0   0  10   0   0   0   1 5 
   2   0  10   0   0   0   0   0   0   0   0   2 8 6 
   9   0   0   0   0   0   0   0   0  10   0   2 11 9 
   2   0   0   0  10   0   0   0   0   0   0   2 11 9 
   1   0   0   0   0   0   0   0   0   0  10   1 9 
   8   0   0   0   0   0   0   0  10   0   0   2 12 10 
   9   0   0   0   0   0   0   0   0  10   0   2 14 13 
   6  10   0   0   0   0   0   0   0   0   0   2 14 13 
   6   0   0   0   0  10   0   0   0   0   0   2 15 14 
  10   0   0   0   0   0   0  10   0   0   0   1 15 
   3  10   0   0   0   0   0   0   0   0   0   3 21 18 17 
   1   0   0   0  10   0   0   0   0   0   0   1 16 
   4   0   0   0  10   0   0   0   0   0   0   3 21 19 17 
   7   0  10   0   0   0   0   0   0   0   0   1 20 
   3  10   0   0   0   0   0   0   0   0   0   1 19 
   1   0   0   0   0   0   0   0   0  10   0   1 22
   1   0   0   0  10   0   0   0   0   0   0   1 22
   4   0  10   0   0   0   0   0   0   0   0   1 22
   0   0   0   0   0   0   0   0   0   0   0   0 
